50 50
   1   38    6    6   47   16    8   40    7    5   13   -1    8    4   41   -1   -1   22   29   30   40   13   27   21   48    0   24   25    4    1   49   16   13   14   36   23   16   -1   38   41   27   21   30   38   39   42    5   23   32   32 
   0    1   33   16   -1   -1   -1   46   45   49    3   26    6   46   19   29   19   -1   31   42   49   24    2   49   13   -1   39   20   -1    5   -1   42   38   -1   -1   22   -1   32    0   38   -1   10   38   48   -1   21   -1   35   26   27 
   0    0    1   -1   12    4   -1   15   43   32   38   -1   20   22   15    0   36   15   -1   20   -1   -1   24   -1   14   25   21   35   -1   28   26   39   32   12   31   24   13   10   44   35    4   13   26   13   -1   35   -1   -1    1   -1 
   0    0    0    1    3   39   -1   25   -1   45   15   -1   10   39   47   -1   17    4   28    6   19   37   15   11    6    7   47    4   -1   15   19   44   -1   47    1   43   35   -1   39    1   16    4   30    4   -1    7    5   -1   35   49 
   0    0    0    0    1   22   33   39   43   47   16   43    5   40    0   -1   -1   38   38   28   -1   48   -1   -1   44    5   -1   46   18   -1   40   24    6   25   42   33   32   25   16   17   -1   12   38   39   40   24    3   -1   13   34 
   0    0    0    0    0    1   18   42   36   44   22   35   30   -1   19    4   -1   -1   -1    8   -1   28   43   23   36   -1   -1   36   17   12   -1   40   10    7   44   13   29   25   43   34   32   44   -1   17   -1   30   27   45   -1   15 
   0    0    0    0    0    0    1   46   10   10   -1   -1   24   25   21   49    2   12   11   -1    0   49   -1    0   45   13   39   45   49   27   17   35   16   15   42    0   37    2   -1   45   14   17   48   32   27    6   29   38   12   -1 
   0    0    0    0    0    0    0    1   30   -1   -1   -1   -1    8   23   11   18   26   15    9   -1   17   32   -1    6   47   -1    1   43   18    5   17   44   49   28   -1   36   30   -1   42   12   49   25   -1   19   21   20   25   28    4 
   0    0    0    0    0    0    0    0    1   21   44   23   45   28   47   39   21   49   48   27   -1    0   44   34   41   23   49   30   40   -1   39   -1    9   -1   18   32   -1   -1   38   34   48    8   29   21   24   -1   46   45   44   -1 
   0    0    0    0    0    0    0    0    0    1   32    9   15   -1   -1   -1   39   28   -1   24   13   35   -1    0    4   13   36   30   30   -1   30   20   -1   19   -1   30   40   18   44   10   40   10   13   30   31   40   18   32    1   -1 
   0    0    0    0    0    0    0    0    0    0    1    2   39   -1   -1   10   34   39   29   -1   -1   46   42   41   -1    9   37   19   25   42   43   -1   21    6   -1   19   45   42   23   18    9   39   24    1   31   -1   -1   -1   -1   -1 
   0    0    0    0    0    0    0    0    0    0    0    1   -1   34   -1   -1   -1   25    9   43   43    6   20   36   17    1   -1   34    7   35   -1    1   -1   48   41   47   37   47   -1   49   33   45   44    0   42   24   -1   33   32   27 
   0    0    0    0    0    0    0    0    0    0    0    0    1   21   30   17   22   46    6    1   45   27   38   36   -1   -1   35   43   35   44   46    8   33    8   16   27   -1   45   -1   16   -1   33   19   37   21    8   -1   23   17   43 
   0    0    0    0    0    0    0    0    0    0    0    0    0    1   -1   33   29    6   10    2   10   18   14   -1   25   36   31   20   46   39   16   -1   37   39    0   36   -1   -1   38   26   10   -1   -1   13   23   47   32    3   -1   31 
   0    0    0    0    0    0    0    0    0    0    0    0    0    0    1   45   -1   39   28   -1   14   17   29    8   46   28   22   -1   27   12   -1    1   -1   48    0   -1    2    2   12   -1   10    0    6   14   29    1   33   35   -1   20 
   0    0    0    0    0    0    0    0    0    0    0    0    0    0    0    1    7   30   22   38   42   -1   31   -1   25   -1   -1    5   33    0   14   19   35    4   19   -1   26   38   -1   -1    7   -1   -1   40   46   11    0    5   20   15 
   0    0    0    0    0    0    0    0    0    0    0    0    0    0    0    0    1   25   35   18   33   33   36    8   46   -1   -1   23   36   15   -1   16    6   15   45   -1   -1   -1   -1   23   13   17   40   -1    8    9   41   33   15    5 
   0    0    0    0    0    0    0    0    0    0    0    0    0    0    0    0    0    1   16   41   21   32   -1    6   43   49    7   44   17    1    7   45   24    0    1   13   -1   14   -1   23    3   12    5   45   42    6    4   43   43   30 
   0    0    0    0    0    0    0    0    0    0    0    0    0    0    0    0    0    0    1   26    3   -1   -1   38   44   14    7   10   39   29   49   28   31   27   33    0   13   -1   30   -1    6   31   -1   49    9   29   13   45    5   49 
   0    0    0    0    0    0    0    0    0    0    0    0    0    0    0    0    0    0    0    1    0    4   32   35   44    1    0   49   18   21   44   30   22   23   35   21   44   -1   19   20   -1   29   -1   47   30   25   42   16   29   45 
   0    0    0    0    0    0    0    0    0    0    0    0    0    0    0    0    0    0    0    0    0   22    4   -1   -1   24   20   33   40   -1   -1    7   31   13   13   19   13   35   26    8   32   -1   25   -1   45   43   -1   36   -1   -1 
   0    0    0    0    0    0    0    0    0    0    0    0    0    0    0    0    0    0    0    0    0    0    2   42   13   35   47   38   38   23   47   10   27   33    6   -1   42   -1   -1   36   31   21   -1   25   49   11   29    2   25   23 
   0    0    0    0    0    0    0    0    0    0    0    0    0    0    0    0    0    0    0    0    0    0    0   17   28   21    5   -1   12   11   39   48   17   21   -1   41   -1   35   26   31   13   13   13   -1   14   45   -1   23   43    3 
   0    0    0    0    0    0    0    0    0    0    0    0    0    0    0    0    0    0    0    0    0    0    0    0   13   37    6   -1   -1   -1   41    0   -1   16   31   47   39   39    1   31   45   -1   -1   22   -1    4    1    4   17    9 
   0    0    0    0    0    0    0    0    0    0    0    0    0    0    0    0    0    0    0    0    0    0    0    0    0   41   29   10   35   22   -1   15   22   -1   39   18   16   26   -1   37    1   31    1   15   18   -1   -1   27   31   48 
   0    0    0    0    0    0    0    0    0    0    0    0    0    0    0    0    0    0    0    0    0    0    0    0    0    0   -1   34   35    5    2    4   39   29   45    5    8   21   -1   -1    5    9   23   -1   -1    8   -1   26   43    4 
   0    0    0    0    0    0    0    0    0    0    0    0    0    0    0    0    0    0    0    0    0    0    0    0    0    0    0   40   11   43   43    0   20   24   45   20   21   22    8   28   32   -1    7   36   47    1   40   17   -1   31 
   0    0    0    0    0    0    0    0    0    0    0    0    0    0    0    0    0    0    0    0    0    0    0    0    0    0    0    0   22   -1   34   40   41   37    1   -1   23   13    7   37   48   16   -1   28   -1   -1   10   29   17   37 
   0    0    0    0    0    0    0    0    0    0    0    0    0    0    0    0    0    0    0    0    0    0    0    0    0    0    0    0    0   17    5   -1   -1    9    8   15   22    1   28   19   -1   49   45   26   49   -1   43   -1   31   23 
   0    0    0    0    0    0    0    0    0    0    0    0    0    0    0    0    0    0    0    0    0    0    0    0    0    0    0    0    0    0   16   27   -1   -1   46   45   10   -1   21   -1   -1   28   38   47   11   -1   47   39   13   29 
   0    0    0    0    0    0    0    0    0    0    0    0    0    0    0    0    0    0    0    0    0    0    0    0    0    0    0    0    0    0    0   16   34   46   44   41   -1   38   15   22   39   37   48   -1   35   13   -1   39   -1    1 
   0    0    0    0    0    0    0    0    0    0    0    0    0    0    0    0    0    0    0    0    0    0    0    0    0    0    0    0    0    0    0    0    3   38   29   -1   -1   12   18   -1   -1    5    2   49   36   46   38    1   49   27 
   0    0    0    0    0    0    0    0    0    0    0    0    0    0    0    0    0    0    0    0    0    0    0    0    0    0    0    0    0    0    0    0    0   -1    9   -1   17   35   16    1   30   30   46   33    8   45    6   12   40   28 
   0    0    0    0    0    0    0    0    0    0    0    0    0    0    0    0    0    0    0    0    0    0    0    0    0    0    0    0    0    0    0    0    0    0   44   28   44   16   47   19   31   -1   -1    5   -1   47   -1    1    7   13 
   0    0    0    0    0    0    0    0    0    0    0    0    0    0    0    0    0    0    0    0    0    0    0    0    0    0    0    0    0    0    0    0    0    0    0   28   12   35   33   25    2   43    7   33   18   19   27   45   -1   -1 
   0    0    0    0    0    0    0    0    0    0    0    0    0    0    0    0    0    0    0    0    0    0    0    0    0    0    0    0    0    0    0    0    0    0    0    0   48   -1   32   37    2   40   39   38   -1    0   34   46   34   27 
   0    0    0    0    0    0    0    0    0    0    0    0    0    0    0    0    0    0    0    0    0    0    0    0    0    0    0    0    0    0    0    0    0    0    0    0    0   38   30   36   48   17   46   -1   -1   15   -1   26    1   13 
   0    0    0    0    0    0    0    0    0    0    0    0    0    0    0    0    0    0    0    0    0    0    0    0    0    0    0    0    0    0    0    0    0    0    0    0    0    0   22   41   16   24   10    5   36   20    3   46   32    5 
   0    0    0    0    0    0    0    0    0    0    0    0    0    0    0    0    0    0    0    0    0    0    0    0    0    0    0    0    0    0    0    0    0    0    0    0    0    0    0   39   33   45    1   46   40   16   19   17   19    1 
   0    0    0    0    0    0    0    0    0    0    0    0    0    0    0    0    0    0    0    0    0    0    0    0    0    0    0    0    0    0    0    0    0    0    0    0    0    0    0    0   23   -1   13   -1   17   11   15   47   37   -1 
   0    0    0    0    0    0    0    0    0    0    0    0    0    0    0    0    0    0    0    0    0    0    0    0    0    0    0    0    0    0    0    0    0    0    0    0    0    0    0    0    0    3   32    5   27   -1   45   36   30   16 
   0    0    0    0    0    0    0    0    0    0    0    0    0    0    0    0    0    0    0    0    0    0    0    0    0    0    0    0    0    0    0    0    0    0    0    0    0    0    0    0    0    0   -1   18    3   13   37    7   -1   -1 
   0    0    0    0    0    0    0    0    0    0    0    0    0    0    0    0    0    0    0    0    0    0    0    0    0    0    0    0    0    0    0    0    0    0    0    0    0    0    0    0    0    0    0   25    3    4   22    4   12   35 
   0    0    0    0    0    0    0    0    0    0    0    0    0    0    0    0    0    0    0    0    0    0    0    0    0    0    0    0    0    0    0    0    0    0    0    0    0    0    0    0    0    0    0    0   47   18   -1   20   -1   30 
   0    0    0    0    0    0    0    0    0    0    0    0    0    0    0    0    0    0    0    0    0    0    0    0    0    0    0    0    0    0    0    0    0    0    0    0    0    0    0    0    0    0    0    0    0   20    5   25   -1   21 
   0    0    0    0    0    0    0    0    0    0    0    0    0    0    0    0    0    0    0    0    0    0    0    0    0    0    0    0    0    0    0    0    0    0    0    0    0    0    0    0    0    0    0    0    0    0   -1   16   25   -1 
   0    0    0    0    0    0    0    0    0    0    0    0    0    0    0    0    0    0    0    0    0    0    0    0    0    0    0    0    0    0    0    0    0    0    0    0    0    0    0    0    0    0    0    0    0    0    0   23    6   31 
   0    0    0    0    0    0    0    0    0    0    0    0    0    0    0    0    0    0    0    0    0    0    0    0    0    0    0    0    0    0    0    0    0    0    0    0    0    0    0    0    0    0    0    0    0    0    0    0   -1   22 
   0    0    0    0    0    0    0    0    0    0    0    0    0    0    0    0    0    0    0    0    0    0    0    0    0    0    0    0    0    0    0    0    0    0    0    0    0    0    0    0    0    0    0    0    0    0    0    0    0    7 
   0    0    0    0    0    0    0    0    0    0    0    0    0    0    0    0    0    0    0    0    0    0    0    0    0    0    0    0    0    0    0    0    0    0    0    0    0    0    0    0    0    0    0    0    0    0    0    0    0    0 
